&input
 zasr = 'simple' ,
 fildyn = 'dynmatmd' ,
 flfrc = 'fc'
/

